NAME : LR2_6_9
TYPE : PDPTW
DIMENSION : 150
EDGE_WEIGHT_TYPE : EXACT_2D
NODE_COORD_SECTION
1 1 0
2 150 0
3 0 0
4 -8 4122
5 0 2
6 1333 1541
7 3 284
8 3187 10
9 38 139
10 10 0
11 178 19
12 0 323
13 -2 1834
14 0 7
15 2734 3150
16 8 175
17 3074 10
18 45 115
19 10 525
20 203 -46
21 88 0
22 -25 3008
23 0 12
24 879 977
25 13 274
26 2251 10
27 232 121
28 10 0
29 83 22
30 0 157
31 33 436
32 265 17
33 1585 2048
34 18 61
35 1635 10
36 80 35
37 10 198
38 135 -8
39 521 0
40 2 342
41 96 22
42 1908 2332
43 23 102
44 461 10
45 276 28
46 10 0
47 179 -24
48 369 0
49 -15 561
50 0 27
51 2393 2718
52 28 61
53 2894 10
54 283 144
55 10 0
56 232 -17
57 266 0
58 -37 2362
59 0 32
60 2151 2543
61 33 176
62 2698 10
63 117 168
64 10 0
65 102 -2
66 389 0
67 -12 1543
68 0 37
69 2606 2880
70 38 29
71 3390 10
72 136 241
73 10 0
74 42 17
75 0 81
76 42 1777
77 593 42
78 2107 2716
79 43 136
80 2580 10
81 230 80
82 10 191
83 172 -21
84 298 0
85 16 718
86 578 47
87 2658 2953
88 48 72
89 3131 10
90 57 125
91 10 0
92 47 6
93 0 356
94 21 2587
95 65 52
96 2292 2892
97 53 220
98 2721 10
99 191 234
100 10 0
101 40 22
102 0 428
103 -10 1469
104 0 57
105 295 627
106 58 272
107 1720 10
108 56 116
109 10 0
110 93 39
111 0 536
112 -19 3551
113 0 62
114 2463 3168
115 63 208
116 1452 10
117 285 283
118 10 0
119 37 -21
120 51 0
121 19 73
122 97 67
123 227 860
124 68 37
125 629 10
126 201 175
127 10 101
128 155 11
129 0 433
130 -18 3454
131 0 72
132 2623 2840
133 73 279
134 2952 10
135 46 155
136 10 59
137 178 -23
138 172 0
139 19 344
140 601 77
141 2474 2854
142 78 268
143 3611 10
144 207 149
145 10 0
146 123 4
147 0 186
148 -17 2741
149 0 82
150 181 531
PICKUP_AND_DELIVERY_SECTION
1 0 0 0 0 0 0
2 0 0 0 0 4823 0
3 0 0 0 0 0 133
4 0 0 0 0 10 10
5 0 0 0 0 41 41
6 0 0 0 0 410 410
7 0 0 0 0 -24 -24
8 0 0 0 0 0 0
9 0 0 0 0 1361 1361
10 0 0 0 0 5 5
11 0 0 0 0 3211 3211
12 0 0 0 0 241 241
13 0 0 0 0 10 10
14 0 0 0 0 221 221
15 0 0 0 0 0 0
16 0 0 0 0 8 8
17 0 0 0 0 195 0
18 0 0 0 0 843 843
19 0 0 0 0 10 0
20 0 0 0 0 2271 2271
21 0 0 0 0 178 178
22 0 0 0 0 10 10
23 0 0 0 0 2 2
24 0 0 0 0 503 503
25 0 0 0 0 41 41
26 0 0 0 0 338 0
27 0 0 0 0 2358 2358
28 0 0 0 0 15 15
29 0 0 0 0 858 858
30 0 0 0 0 275 275
31 0 0 0 0 10 10
32 0 0 0 0 211 211
33 0 0 0 0 115 115
34 0 0 0 0 7 7
35 0 0 0 0 258 0
36 0 0 0 0 1913 1913
37 0 0 0 0 20 0
38 0 0 0 0 3736 3736
39 0 0 0 0 60 60
40 0 0 0 0 10 10
41 0 0 0 0 127 127
42 0 0 0 0 0 0
43 0 0 0 0 15 15
44 0 0 0 0 522 0
45 0 0 0 0 1098 1098
46 0 0 0 0 25 25
47 0 0 0 0 3670 3670
48 0 0 0 0 289 289
49 0 0 0 0 10 10
50 0 0 0 0 134 134
51 0 0 0 0 319 319
52 0 0 0 0 -10 -10
53 0 0 0 0 0 0
54 0 0 0 0 297 297
55 0 0 0 0 30 30
56 0 0 0 0 4077 4077
57 0 0 0 0 120 120
58 0 0 0 0 10 10
59 0 0 0 0 64 64
60 0 0 0 0 0 0
61 0 0 0 0 -17 -17
62 0 0 0 0 0 0
63 0 0 0 0 37 37
64 0 0 0 0 35 35
65 0 0 0 0 4439 4439
66 0 0 0 0 157 157
67 0 0 0 0 10 10
68 0 0 0 0 3 3
69 0 0 0 0 133 133
70 0 0 0 0 -22 -22
71 0 0 0 0 0 0
72 0 0 0 0 1457 1457
73 0 0 0 0 40 40
74 0 0 0 0 1265 1265
75 0 0 0 0 183 183
76 0 0 0 0 10 10
77 0 0 0 0 299 299
78 0 0 0 0 0 0
79 0 0 0 0 19 19
80 0 0 0 0 232 0
81 0 0 0 0 3042 3042
82 0 0 0 0 45 0
83 0 0 0 0 3233 3233
84 0 0 0 0 136 136
85 0 0 0 0 10 10
86 0 0 0 0 200 200
87 0 0 0 0 4 4
88 0 0 0 0 -20 -20
89 0 0 0 0 0 0
90 0 0 0 0 833 833
91 0 0 0 0 50 50
92 0 0 0 0 567 567
93 0 0 0 0 262 262
94 0 0 0 0 10 10
95 0 0 0 0 250 250
96 0 0 0 0 0 0
97 0 0 0 0 38 38
98 0 0 0 0 153 0
99 0 0 0 0 349 349
100 0 0 0 0 55 55
101 0 0 0 0 3647 3647
102 0 0 0 0 227 227
103 0 0 0 0 10 10
104 0 0 0 0 141 141
105 0 0 0 0 0 0
106 0 0 0 0 8 8
107 0 0 0 0 379 0
108 0 0 0 0 840 840
109 0 0 0 0 60 60
110 0 0 0 0 2280 2280
111 0 0 0 0 120 120
112 0 0 0 0 10 10
113 0 0 0 0 119 119
114 0 0 0 0 22 22
115 0 0 0 0 -13 -13
116 0 0 0 0 0 0
117 0 0 0 0 2075 2075
118 0 0 0 0 65 65
119 0 0 0 0 3534 3534
120 0 0 0 0 180 180
121 0 0 0 0 10 10
122 0 0 0 0 139 139
123 0 0 0 0 0 0
124 0 0 0 0 7 7
125 0 0 0 0 497 0
126 0 0 0 0 2483 2483
127 0 0 0 0 70 0
128 0 0 0 0 96 96
129 0 0 0 0 94 94
130 0 0 0 0 10 10
131 0 0 0 0 135 135
132 0 0 0 0 508 508
133 0 0 0 0 -19 -19
134 0 0 0 0 0 0
135 0 0 0 0 2810 2810
136 0 0 0 0 75 0
137 0 0 0 0 3382 3382
138 0 0 0 0 15 15
139 0 0 0 0 0 0
140 0 0 0 0 146 146
141 0 0 0 0 288 288
142 0 0 0 0 -17 -17
143 0 0 0 0 0 0
144 0 0 0 0 1255 1255
145 0 0 0 0 80 80
146 0 0 0 0 241 241
147 0 0 0 0 103 103
148 0 0 0 0 10 10
149 0 0 0 0 235 235
150 0 0 0 0 0 0
DEPOT_SECTION
1 
-1
EOF
